70518
0 0 1 0 1 0 1 0 0 0 1 0 0 1 1 1 0 1 1 1 1 0 0 1 1 0 1 0 1 1 
19 4 24 15 14 4 15 2 15 23 28 20 4 10 19 18 10 2 24 28 2 15 24 19 14 6 24 28 4 18 13 4 6 28 6 14 2 17 19 15 20 23 20 28 10 6 4 15 14 14 2 28 6 24 20 17 18 23 18 10 4 15 29 23 10 14 2 24 10 10 13 6 19 10 23 19 13 14 26 4 6 17 17 6 4 10 6 18 19 29 14 26 17 23 28 2 18 20 18 29 13 15 28 24 14 28 17 2 28 24 23 17 14 10 13 20 23 29 17 20 2 29 24 29 24 15 10 17 6 13 14 23 29 29 18 28 15 23 6 20 19 13 29 17 29 23 28 15 23 15 18 24 2 23 20 18 20 26 23 18 10 17 17 4 24 23 28 29 20 15 13 14 17 20 17 26 2 4 20 13 13 18 4 14 24 13 29 18 2 13 10 20 19 29 6 19 19 4 19 6 
